h 1 2 0
h 3 4 5 0
7625017564924141 -6 0
h 7 0
h 8 -1 0
h -9 10 0
h 11 -5 0
h -8 12 0
6738716129753508 -7 0
h -13 9 0
h -4 -14 0
h 14 15 0
h -15 -10 0
h -16 -5 0
1049804898469649 -17 0
h 6 -2 0
15405925800111771 -11 0
h 13 -4 0
15463202021705229 -3 0
h -12 16 0
h 10 17 0
